11 965
535 8 493 8 396 9 228 10 178 22
535 8 493 8 396 9 228 10 178 22
535 8 493 8 396 9 228 10 178 22
525 7 479 7 358 7 198 9 23 11 847 15 691 20 571 27
525 7 445 7 264 7 63 9 878 13
525 7 482 7 362 7 201 9 13 11 819 18
525 7 482 7 362 7 118 9 855 11 673 18
535 8 491 8 398 9 231 10 100 15
525 7 504 7 427 11
525 7 504 7 427 11
525 7 446 7 267 7 66 9 891 11 731 18
